86 85 90 92 93 89 94 95 96 97 98 99 100 102 101 552 553 554 556 557 35 33 34 558 559 551 550 560 561 562 563 565 566 564 549 548 546 545 544 543 547 103 104 105 106 118 119 120 121 122 123 71 72 65 66 67 68 70 69 124 125 126 127 128 117 116 115 114 131 130 129 137 138 139 140 141 144 143 142 151 150 149 152 148 147 146 145 153 157 158 136 135 134 133 132 113 112 111 110 107 542 541 109 108 173 174 175 172 170 171 169 180 181 179 182 183 185 184 197 198 199 200 201 166 167 164 163 168 162 161 160 159 156 155 154 165 203 204 202 208 207 206 205 196 195 194 209 210 211 212 213 214 215 216 217 223 224 222 221 220 218 219 193 192 191 190 226 225 189 227 228 229 186 188 187 178 177 176 540 538 539 537 536 484 485 483 482 481 480 479 478 477 476 475 567 568 569 570 474 473 472 471 495 494 524 525 493 492 491 490 526 523 521 522 514 515 516 517 520 518 519 497 496 470 469 468 467 466 465 464 463 462 461 452 453 499 500 501 498 502 503 504 505 308 307 303 304 306 305 309 310 311 451 312 313 317 318 319 320 321 316 314 315 376 375 374 373 322 323 324 297 298 299 300 301 302 508 507 506 509 510 511 513 512 527 528 529 530 531 489 532 533 488 486 487 535 534 230 231 233 232 234 235 236 237 240 239 238 246 247 245 244 243 242 241 248 249 250 251 252 254 253 255 256 257 260 261 259 258 262 263 264 265 266 267 271 272 269 268 270 296 295 294 293 291 292 273 274 275 290 289 288 276 277 278 279 282 281 280 287 286 285 284 283 334 335 336 337 338 339 333 332 331 330 340 341 344 343 342 366 329 328 325 326 327 367 365 368 369 370 398 397 371 372 396 395 394 393 380 379 377 378 447 448 449 450 441 440 439 442 446 443 444 445 381 390 392 391 389 388 387 386 385 383 384 409 405 408 407 406 399 400 404 403 402 401 357 358 359 360 361 362 363 364 346 345 347 348 349 350 351 415 416 414 413 352 353 354 355 356 412 411 410 418 417 419 420 421 422 423 424 425 382 426 427 428 429 431 430 432 433 434 435 436 437 438 454 455 456 457 458 459 460 571 572 573 0 1 2 3 4 5 6 7 8 9 10 11 14 15 16 17 18 19 20 21 13 12 23 22 24 25 26 27 28 29 31 30 32 36 37 38 40 41 39 42 43 44 45 555 91 46 47 48 49 50 84 51 52 54 53 55 56 83 82 57 58 59 81 80 79 62 61 60 63 64 76 75 73 74 77 78 88 87